sat
(:added-eqs                   173
 :arith-eq-adapter            33
 :arith-bound-propagations-lp 2
 :arith-conflicts             7
 :arith-diseq                 11
 :arith-fixed-eqs             33
 :arith-grobner-calls         2
 :arith-lower                 57
 :arith-make-feasible         34
 :arith-max-columns           300
 :arith-max-rows              49
 :arith-nla-add-bounds        1
 :arith-nla-lemmas            1
 :arith-nla-propagate-eq      76
 :arith-nra-calls             1
 :arith-offset-eqs            4
 :arith-upper                 158
 :binary-propagations         284
 :card2bv-rewrites            6
 :conflicts                   6
 :decisions                   272
 :del-clause                  31
 :elim-unconstrained          4
 :final-checks                3
 :max-memory                  20.28
 :memory                      18.58
 :mk-bool-var                 405
 :mk-clause                   67
 :mk-clause-binary            361
 :num-allocs                  1361907
 :num-checks                  1
 :propagations                312
 :rlimit-count                147978
 :time                        0.04
 :total-time                  0.06)
